c 
c MolecularSimulation 0.9.3
c Simulation written: Jan 13 2012 -- 15:17:57
c Test: Distribution
c Input: ./data/testCNF/SWEEP_R14_K3_N20_M264_S001.cnf
c 
s UNSATISFIABLE
v 0
c algorithmTime:  968
c solutionMemory: 0
c mixCount:       789
c extractCount:   0
c appendCount:    14299590
c splitCount:     789
c spliceCount:    6614689
c purifyCount:    263
c 
